42 378
1 3 5 6 9 10 11 12 14 16 18 19 21 22 25 28 30 31 32 33 35 36 37 41
0 3 5 6 8 10 13 15 16 17 18 20 22 24 27 29 30 32 33 35 38 41
4 5 6 7 8 11 12 15 18 20 21 22 23 25 28 29 30 33 37 39
0 1 5 6 7 9 14 16 17 18 20 24 25 30 31 36 39
2 5 7 8 11 12 20 22 23 24 25 26 28 33 34 35 38 40 41
0 1 2 3 4 6 7 17 18 20 21 22 23 25 28 30 40 41
0 1 2 3 5 7 8 10 11 14 15 16 18 20 21 22 23 25 26 29 35 36 38 39 40
2 3 4 5 6 8 11 12 16 21 23 24 27 30 35
1 2 4 6 7 9 13 16 19 20 25 29 31 32 33 34 38 41
0 3 8 12 22 23 26 27 28 29 32 34 36 39 41
0 1 6 16 23 26 28 29 32 36 41
0 2 4 6 7 12 13 15 19 22 23 25 36 37 38 39 40
0 2 4 7 9 11 16 17 18 19 20 22 23 24 25 29 30 31 32 37 41
1 8 11 16 17 18 23 27 30 31 32 34 35 39 41
0 3 6 16 18 19 20 25 29 31 32 33 40
1 2 6 11 19 20 25 26 27 28 30 31 33 36 38
0 1 3 6 7 8 10 12 13 14 19 20 21 22 23 24 25 26 27 28 29 32 34 39
1 3 5 12 13 18 19 20 23 24 27 28 34 37 40
0 1 2 3 5 6 12 13 14 17 24 32 34 36 37 38 39 40 41
0 8 11 12 14 15 16 17 20 21 22 23 24 26 27 31 32 33 34 35 36 38 40
1 2 3 4 5 6 8 12 14 15 16 17 19 21 24 25 27 30 31 34 35 36 40
0 2 5 6 7 16 19 20 22 25 27 30 33 34 35 36 38 39 40
0 1 2 4 5 6 9 11 12 16 19 21 32 33 35 36 38 41
2 4 5 6 7 9 10 11 12 13 16 17 19 25 26 30 35 36 39 40 41
1 3 4 7 12 16 17 18 19 20 27 28 29 33 34 41
0 2 3 4 5 6 8 11 12 14 15 16 20 21 23 28 29 30 32 36 37 38 40
4 6 9 10 15 16 19 23 27 28 30 32 35 36 37
1 7 9 13 15 16 17 19 20 21 24 26 29 31 32 34 35 37 41
0 2 4 5 9 10 15 16 17 24 25 26 30 33 36 40 41
1 2 6 8 9 10 12 14 16 24 25 27 31 35 39
0 1 2 3 5 7 12 13 15 20 21 23 25 26 28 31 33 35 36 38 39 41
0 3 8 12 13 14 15 19 20 27 29 30 32 33 34 35 36 37 40 41
0 1 8 9 10 12 13 14 16 18 19 22 25 26 27 31 35 36 41
0 1 2 4 8 14 15 19 21 22 24 28 30 31
4 8 9 13 16 17 18 19 20 21 24 27 31 36
0 1 4 6 7 13 19 20 21 22 23 26 27 29 30 31 32 39
0 3 6 9 10 11 15 18 19 20 21 22 23 25 26 28 30 31 32 34 40 41
0 2 11 12 17 18 25 26 27 31 41
1 4 6 8 11 15 18 19 21 22 25 30
2 3 6 9 11 13 16 18 21 23 29 30 35 40 41
4 5 6 11 14 17 18 19 20 21 23 25 28 31 36 39
0 1 4 5 8 9 10 12 13 18 22 23 24 27 28 30 31 32 36 37 39
